20
80.0
0 19 5.44 2.65
1 18 6.38 2.58
2 17 6.58 2.36
3 16 5.72 2.96
4 15 6.66 2.04
5 14 5.82 2.39
6 13 6.13 2.13
7 12 6.24 2.39
8 11 6.3 1.98
9 10 6.15 1.87
10 9 5.46 3.84
11 8 5.05 2.83
12 7 5.35 1.61
13 6 6.16 0.85
14 5 6.41 2.06
15 4 6.65 2.26
16 3 4.04 2.39
17 2 5.99 3.31
18 1 4.95 1.46
